# Objective value = 1.0935229851400763e+02
x[0,1,1] 0
x[0,1,2] 0
x[0,1,3] 0
x[0,1,4] 0
x[0,1,5] 0
x[0,2,1] 0
x[0,2,2] 0
x[0,2,3] 0
x[0,2,4] 0
x[0,2,5] 0
x[0,3,1] 0
x[0,3,2] 0
x[0,3,3] 0
x[0,3,4] 0
x[0,3,5] 0
x[0,4,1] 0
x[0,4,2] 0
x[0,4,3] 0
x[0,4,4] 0
x[0,4,5] 0
x[0,5,1] 0
x[0,5,2] 0
x[0,5,3] 0
x[0,5,4] 0
x[0,5,5] 0
x[0,6,1] 0
x[0,6,2] 0
x[0,6,3] 0
x[0,6,4] 0
x[0,6,5] 0
x[0,7,1] 0
x[0,7,2] 0
x[0,7,3] 0
x[0,7,4] 0
x[0,7,5] 0
x[0,8,1] 1
x[0,8,2] 0
x[0,8,3] 0
x[0,8,4] 0
x[0,8,5] 0
x[0,9,1] 0
x[0,9,2] 0
x[0,9,3] 0
x[0,9,4] 0
x[0,9,5] 0
x[0,10,1] 0
x[0,10,2] 1
x[0,10,3] 0
x[0,10,4] 0
x[0,10,5] 0
x[0,11,1] 0
x[0,11,2] 0
x[0,11,3] 0
x[0,11,4] 0
x[0,11,5] 0
x[0,12,1] 0
x[0,12,2] 0
x[0,12,3] 0
x[0,12,4] 0
x[0,12,5] 0
x[0,13,1] 0
x[0,13,2] 0
x[0,13,3] 0
x[0,13,4] 0
x[0,13,5] 0
x[0,14,1] 0
x[0,14,2] 0
x[0,14,3] 0
x[0,14,4] 0
x[0,14,5] 0
x[0,15,1] 0
x[0,15,2] 0
x[0,15,3] 0
x[0,15,4] 0
x[0,15,5] 0
x[0,16,1] 0
x[0,16,2] 0
x[0,16,3] 0
x[0,16,4] 0
x[0,16,5] 0
x[0,17,1] 0
x[0,17,2] 0
x[0,17,3] 0
x[0,17,4] 0
x[0,17,5] 9.9999919616480637e-01
x[0,18,1] 0
x[0,18,2] 0
x[0,18,3] 0
x[0,18,4] 0
x[0,18,5] 0
x[0,19,1] 0
x[0,19,2] 0
x[0,19,3] 0
x[0,19,4] 0
x[0,19,5] 0
x[0,20,1] 0
x[0,20,2] 0
x[0,20,3] 0
x[0,20,4] 0
x[0,20,5] 0
x[0,21,1] 0
x[0,21,2] 0
x[0,21,3] 1
x[0,21,4] 1
x[0,21,5] 8.0325335209478762e-07
x[1,2,1] 0
x[1,2,2] 0
x[1,2,3] 0
x[1,2,4] 0
x[1,2,5] 0
x[1,3,1] 0
x[1,3,2] 0
x[1,3,3] 0
x[1,3,4] 0
x[1,3,5] 0
x[1,4,1] 0
x[1,4,2] 0
x[1,4,3] 0
x[1,4,4] 0
x[1,4,5] 0
x[1,5,1] 0
x[1,5,2] 0
x[1,5,3] 0
x[1,5,4] 0
x[1,5,5] 0
x[1,6,1] 0
x[1,6,2] 1
x[1,6,3] 0
x[1,6,4] 0
x[1,6,5] 0
x[1,7,1] 0
x[1,7,2] 0
x[1,7,3] 0
x[1,7,4] 0
x[1,7,5] 0
x[1,8,1] 0
x[1,8,2] 0
x[1,8,3] 0
x[1,8,4] 0
x[1,8,5] 0
x[1,9,1] 0
x[1,9,2] 0
x[1,9,3] 0
x[1,9,4] 0
x[1,9,5] 0
x[1,10,1] 0
x[1,10,2] 0
x[1,10,3] 0
x[1,10,4] 0
x[1,10,5] 0
x[1,11,1] 0
x[1,11,2] 0
x[1,11,3] 0
x[1,11,4] 0
x[1,11,5] 0
x[1,12,1] 0
x[1,12,2] 0
x[1,12,3] 0
x[1,12,4] 0
x[1,12,5] 0
x[1,13,1] 0
x[1,13,2] 0
x[1,13,3] 0
x[1,13,4] 0
x[1,13,5] 0
x[1,14,1] 0
x[1,14,2] 0
x[1,14,3] 0
x[1,14,4] 0
x[1,14,5] 0
x[1,15,1] 0
x[1,15,2] 0
x[1,15,3] 0
x[1,15,4] 0
x[1,15,5] 0
x[1,16,1] 0
x[1,16,2] 0
x[1,16,3] 0
x[1,16,4] 0
x[1,16,5] 0
x[1,17,1] 0
x[1,17,2] 0
x[1,17,3] 0
x[1,17,4] 0
x[1,17,5] 0
x[1,18,1] 0
x[1,18,2] 0
x[1,18,3] 0
x[1,18,4] 0
x[1,18,5] 0
x[1,19,1] 0
x[1,19,2] 0
x[1,19,3] 0
x[1,19,4] 0
x[1,19,5] 0
x[1,20,1] 0
x[1,20,2] 0
x[1,20,3] 0
x[1,20,4] 0
x[1,20,5] 0
x[1,21,1] 0
x[1,21,2] 0
x[1,21,3] 0
x[1,21,4] 0
x[1,21,5] 0
x[2,1,1] 0
x[2,1,2] 0
x[2,1,3] 0
x[2,1,4] 0
x[2,1,5] 0
x[2,3,1] 0
x[2,3,2] 0
x[2,3,3] 0
x[2,3,4] 0
x[2,3,5] 0
x[2,4,1] 0
x[2,4,2] 0
x[2,4,3] 0
x[2,4,4] 0
x[2,4,5] 0
x[2,5,1] 0
x[2,5,2] 0
x[2,5,3] 0
x[2,5,4] 0
x[2,5,5] 0
x[2,6,1] 0
x[2,6,2] 0
x[2,6,3] 0
x[2,6,4] 0
x[2,6,5] 0
x[2,7,1] 0
x[2,7,2] 0
x[2,7,3] 0
x[2,7,4] 0
x[2,7,5] 0
x[2,8,1] 0
x[2,8,2] 0
x[2,8,3] 0
x[2,8,4] 0
x[2,8,5] 0
x[2,9,1] 0
x[2,9,2] 0
x[2,9,3] 0
x[2,9,4] 0
x[2,9,5] 0
x[2,10,1] 0
x[2,10,2] 0
x[2,10,3] 0
x[2,10,4] 0
x[2,10,5] 0
x[2,11,1] 1
x[2,11,2] 0
x[2,11,3] 0
x[2,11,4] 0
x[2,11,5] 0
x[2,12,1] 0
x[2,12,2] 0
x[2,12,3] 0
x[2,12,4] 0
x[2,12,5] 0
x[2,13,1] 0
x[2,13,2] 0
x[2,13,3] 0
x[2,13,4] 0
x[2,13,5] 0
x[2,14,1] 0
x[2,14,2] 0
x[2,14,3] 0
x[2,14,4] 0
x[2,14,5] 0
x[2,15,1] 0
x[2,15,2] 0
x[2,15,3] 0
x[2,15,4] 0
x[2,15,5] 0
x[2,16,1] 0
x[2,16,2] 0
x[2,16,3] 0
x[2,16,4] 0
x[2,16,5] 0
x[2,17,1] 0
x[2,17,2] 0
x[2,17,3] 0
x[2,17,4] 0
x[2,17,5] 0
x[2,18,1] 0
x[2,18,2] 0
x[2,18,3] 0
x[2,18,4] 0
x[2,18,5] 0
x[2,19,1] 0
x[2,19,2] 0
x[2,19,3] 0
x[2,19,4] 0
x[2,19,5] 0
x[2,20,1] 0
x[2,20,2] 0
x[2,20,3] 0
x[2,20,4] 0
x[2,20,5] 0
x[2,21,1] 0
x[2,21,2] 0
x[2,21,3] 0
x[2,21,4] 0
x[2,21,5] 0
x[3,1,1] 0
x[3,1,2] 0
x[3,1,3] 0
x[3,1,4] 0
x[3,1,5] 0
x[3,2,1] 0
x[3,2,2] 0
x[3,2,3] 0
x[3,2,4] 0
x[3,2,5] 0
x[3,4,1] 0
x[3,4,2] 0
x[3,4,3] 0
x[3,4,4] 0
x[3,4,5] 0
x[3,5,1] 0
x[3,5,2] 0
x[3,5,3] 0
x[3,5,4] 0
x[3,5,5] 0
x[3,6,1] 0
x[3,6,2] 0
x[3,6,3] 0
x[3,6,4] 0
x[3,6,5] 0
x[3,7,1] 0
x[3,7,2] 0
x[3,7,3] 0
x[3,7,4] 0
x[3,7,5] 0
x[3,8,1] 0
x[3,8,2] 0
x[3,8,3] 0
x[3,8,4] 0
x[3,8,5] 0
x[3,9,1] 0
x[3,9,2] 0
x[3,9,3] 0
x[3,9,4] 0
x[3,9,5] 0
x[3,10,1] 0
x[3,10,2] 0
x[3,10,3] 0
x[3,10,4] 0
x[3,10,5] 0
x[3,11,1] 0
x[3,11,2] 0
x[3,11,3] 0
x[3,11,4] 0
x[3,11,5] 0
x[3,12,1] 0
x[3,12,2] 0
x[3,12,3] 0
x[3,12,4] 0
x[3,12,5] 9.9999959808989858e-01
x[3,13,1] 0
x[3,13,2] 0
x[3,13,3] 0
x[3,13,4] 0
x[3,13,5] 0
x[3,14,1] 0
x[3,14,2] 0
x[3,14,3] 0
x[3,14,4] 0
x[3,14,5] 0
x[3,15,1] 0
x[3,15,2] 0
x[3,15,3] 0
x[3,15,4] 0
x[3,15,5] 0
x[3,16,1] 0
x[3,16,2] 0
x[3,16,3] 0
x[3,16,4] 0
x[3,16,5] 0
x[3,17,1] 0
x[3,17,2] 0
x[3,17,3] 0
x[3,17,4] 0
x[3,17,5] 0
x[3,18,1] 0
x[3,18,2] 0
x[3,18,3] 0
x[3,18,4] 0
x[3,18,5] 0
x[3,19,1] 0
x[3,19,2] 0
x[3,19,3] 0
x[3,19,4] 0
x[3,19,5] 0
x[3,20,1] 0
x[3,20,2] 0
x[3,20,3] 0
x[3,20,4] 0
x[3,20,5] 0
x[3,21,1] 0
x[3,21,2] 0
x[3,21,3] 0
x[3,21,4] 0
x[3,21,5] 0
x[4,1,1] 0
x[4,1,2] 0
x[4,1,3] 0
x[4,1,4] 0
x[4,1,5] 0
x[4,2,1] 0
x[4,2,2] 0
x[4,2,3] 0
x[4,2,4] 0
x[4,2,5] 0
x[4,3,1] 0
x[4,3,2] 0
x[4,3,3] 0
x[4,3,4] 0
x[4,3,5] 0
x[4,5,1] 0
x[4,5,2] 0
x[4,5,3] 0
x[4,5,4] 0
x[4,5,5] 0
x[4,6,1] 0
x[4,6,2] 0
x[4,6,3] 0
x[4,6,4] 0
x[4,6,5] 0
x[4,7,1] 0
x[4,7,2] 0
x[4,7,3] 0
x[4,7,4] 0
x[4,7,5] 0
x[4,8,1] 0
x[4,8,2] 0
x[4,8,3] 0
x[4,8,4] 0
x[4,8,5] 0
x[4,9,1] 0
x[4,9,2] 0
x[4,9,3] 0
x[4,9,4] 0
x[4,9,5] 0
x[4,10,1] 0
x[4,10,2] 0
x[4,10,3] 0
x[4,10,4] 0
x[4,10,5] 0
x[4,11,1] 0
x[4,11,2] 0
x[4,11,3] 0
x[4,11,4] 0
x[4,11,5] 0
x[4,12,1] 0
x[4,12,2] 0
x[4,12,3] 0
x[4,12,4] 0
x[4,12,5] 0
x[4,13,1] 0
x[4,13,2] 1
x[4,13,3] 0
x[4,13,4] 0
x[4,13,5] 0
x[4,14,1] 0
x[4,14,2] 0
x[4,14,3] 0
x[4,14,4] 0
x[4,14,5] 0
x[4,15,1] 0
x[4,15,2] 0
x[4,15,3] 0
x[4,15,4] 0
x[4,15,5] 0
x[4,16,1] 0
x[4,16,2] 0
x[4,16,3] 0
x[4,16,4] 0
x[4,16,5] 0
x[4,17,1] 0
x[4,17,2] 0
x[4,17,3] 0
x[4,17,4] 0
x[4,17,5] 0
x[4,18,1] 0
x[4,18,2] 0
x[4,18,3] 0
x[4,18,4] 0
x[4,18,5] 0
x[4,19,1] 0
x[4,19,2] 0
x[4,19,3] 0
x[4,19,4] 0
x[4,19,5] 0
x[4,20,1] 0
x[4,20,2] 0
x[4,20,3] 0
x[4,20,4] 0
x[4,20,5] 0
x[4,21,1] 0
x[4,21,2] 0
x[4,21,3] 0
x[4,21,4] 0
x[4,21,5] 0
x[5,1,1] 0
x[5,1,2] 0
x[5,1,3] 0
x[5,1,4] 0
x[5,1,5] 0
x[5,2,1] 0
x[5,2,2] 0
x[5,2,3] 0
x[5,2,4] 0
x[5,2,5] 0
x[5,3,1] 0
x[5,3,2] 0
x[5,3,3] 0
x[5,3,4] 0
x[5,3,5] 1
x[5,4,1] 0
x[5,4,2] 0
x[5,4,3] 0
x[5,4,4] 0
x[5,4,5] 0
x[5,6,1] 0
x[5,6,2] 0
x[5,6,3] 0
x[5,6,4] 0
x[5,6,5] 0
x[5,7,1] 0
x[5,7,2] 0
x[5,7,3] 0
x[5,7,4] 0
x[5,7,5] 0
x[5,8,1] 0
x[5,8,2] 0
x[5,8,3] 0
x[5,8,4] 0
x[5,8,5] 0
x[5,9,1] 0
x[5,9,2] 0
x[5,9,3] 0
x[5,9,4] 0
x[5,9,5] 0
x[5,10,1] 0
x[5,10,2] 0
x[5,10,3] 0
x[5,10,4] 0
x[5,10,5] 0
x[5,11,1] 0
x[5,11,2] 0
x[5,11,3] 0
x[5,11,4] 0
x[5,11,5] 0
x[5,12,1] 0
x[5,12,2] 0
x[5,12,3] 0
x[5,12,4] 0
x[5,12,5] 0
x[5,13,1] 0
x[5,13,2] 0
x[5,13,3] 0
x[5,13,4] 0
x[5,13,5] 0
x[5,14,1] 0
x[5,14,2] 0
x[5,14,3] 0
x[5,14,4] 0
x[5,14,5] 0
x[5,15,1] 0
x[5,15,2] 0
x[5,15,3] 0
x[5,15,4] 0
x[5,15,5] 0
x[5,16,1] 0
x[5,16,2] 0
x[5,16,3] 0
x[5,16,4] 0
x[5,16,5] 0
x[5,17,1] 0
x[5,17,2] 0
x[5,17,3] 0
x[5,17,4] 0
x[5,17,5] 0
x[5,18,1] 0
x[5,18,2] 0
x[5,18,3] 0
x[5,18,4] 0
x[5,18,5] 0
x[5,19,1] 0
x[5,19,2] 0
x[5,19,3] 0
x[5,19,4] 0
x[5,19,5] 0
x[5,20,1] 0
x[5,20,2] 0
x[5,20,3] 0
x[5,20,4] 0
x[5,20,5] 0
x[5,21,1] 0
x[5,21,2] 0
x[5,21,3] 0
x[5,21,4] 0
x[5,21,5] 0
x[6,1,1] 0
x[6,1,2] 0
x[6,1,3] 0
x[6,1,4] 0
x[6,1,5] 0
x[6,2,1] 0
x[6,2,2] 0
x[6,2,3] 0
x[6,2,4] 0
x[6,2,5] 0
x[6,3,1] 0
x[6,3,2] 0
x[6,3,3] 0
x[6,3,4] 0
x[6,3,5] 0
x[6,4,1] 0
x[6,4,2] 0
x[6,4,3] 0
x[6,4,4] 0
x[6,4,5] 0
x[6,5,1] 0
x[6,5,2] 0
x[6,5,3] 0
x[6,5,4] 0
x[6,5,5] 0
x[6,7,1] 0
x[6,7,2] 0
x[6,7,3] 0
x[6,7,4] 0
x[6,7,5] 0
x[6,8,1] 0
x[6,8,2] 0
x[6,8,3] 0
x[6,8,4] 0
x[6,8,5] 0
x[6,9,1] 0
x[6,9,2] 0
x[6,9,3] 0
x[6,9,4] 0
x[6,9,5] 0
x[6,10,1] 0
x[6,10,2] 0
x[6,10,3] 0
x[6,10,4] 0
x[6,10,5] 0
x[6,11,1] 0
x[6,11,2] 0
x[6,11,3] 0
x[6,11,4] 0
x[6,11,5] 0
x[6,12,1] 0
x[6,12,2] 0
x[6,12,3] 0
x[6,12,4] 0
x[6,12,5] 0
x[6,13,1] 0
x[6,13,2] 0
x[6,13,3] 0
x[6,13,4] 0
x[6,13,5] 0
x[6,14,1] 0
x[6,14,2] 0
x[6,14,3] 0
x[6,14,4] 0
x[6,14,5] 0
x[6,15,1] 0
x[6,15,2] 0
x[6,15,3] 0
x[6,15,4] 0
x[6,15,5] 0
x[6,16,1] 0
x[6,16,2] 0
x[6,16,3] 0
x[6,16,4] 0
x[6,16,5] 0
x[6,17,1] 0
x[6,17,2] 0
x[6,17,3] 0
x[6,17,4] 0
x[6,17,5] 0
x[6,18,1] 0
x[6,18,2] 0
x[6,18,3] 0
x[6,18,4] 0
x[6,18,5] 0
x[6,19,1] 0
x[6,19,2] 0
x[6,19,3] 0
x[6,19,4] 0
x[6,19,5] 0
x[6,20,1] 0
x[6,20,2] 0
x[6,20,3] 0
x[6,20,4] 0
x[6,20,5] 0
x[6,21,1] 0
x[6,21,2] 1
x[6,21,3] 0
x[6,21,4] 0
x[6,21,5] 0
x[7,1,1] 0
x[7,1,2] 0
x[7,1,3] 0
x[7,1,4] 0
x[7,1,5] 0
x[7,2,1] 0
x[7,2,2] 0
x[7,2,3] 0
x[7,2,4] 0
x[7,2,5] 0
x[7,3,1] 0
x[7,3,2] 0
x[7,3,3] 0
x[7,3,4] 0
x[7,3,5] 0
x[7,4,1] 0
x[7,4,2] 0
x[7,4,3] 0
x[7,4,4] 0
x[7,4,5] 0
x[7,5,1] 0
x[7,5,2] 0
x[7,5,3] 0
x[7,5,4] 0
x[7,5,5] 0
x[7,6,1] 0
x[7,6,2] 0
x[7,6,3] 0
x[7,6,4] 0
x[7,6,5] 0
x[7,8,1] 0
x[7,8,2] 0
x[7,8,3] 0
x[7,8,4] 0
x[7,8,5] 0
x[7,9,1] 0
x[7,9,2] 0
x[7,9,3] 0
x[7,9,4] 0
x[7,9,5] 0
x[7,10,1] 0
x[7,10,2] 0
x[7,10,3] 0
x[7,10,4] 0
x[7,10,5] 0
x[7,11,1] 0
x[7,11,2] 0
x[7,11,3] 0
x[7,11,4] 0
x[7,11,5] 0
x[7,12,1] 0
x[7,12,2] 0
x[7,12,3] 0
x[7,12,4] 0
x[7,12,5] 0
x[7,13,1] 0
x[7,13,2] 0
x[7,13,3] 0
x[7,13,4] 0
x[7,13,5] 0
x[7,14,1] 0
x[7,14,2] 0
x[7,14,3] 0
x[7,14,4] 0
x[7,14,5] 0
x[7,15,1] 0
x[7,15,2] 0
x[7,15,3] 0
x[7,15,4] 0
x[7,15,5] 0
x[7,16,1] 1
x[7,16,2] 0
x[7,16,3] 0
x[7,16,4] 0
x[7,16,5] 0
x[7,17,1] 0
x[7,17,2] 0
x[7,17,3] 0
x[7,17,4] 0
x[7,17,5] 0
x[7,18,1] 0
x[7,18,2] 0
x[7,18,3] 0
x[7,18,4] 0
x[7,18,5] 0
x[7,19,1] 0
x[7,19,2] 0
x[7,19,3] 0
x[7,19,4] 0
x[7,19,5] 0
x[7,20,1] 0
x[7,20,2] 0
x[7,20,3] 0
x[7,20,4] 0
x[7,20,5] 0
x[7,21,1] 0
x[7,21,2] 0
x[7,21,3] 0
x[7,21,4] 0
x[7,21,5] 0
x[8,1,1] 0
x[8,1,2] 0
x[8,1,3] 0
x[8,1,4] 0
x[8,1,5] 0
x[8,2,1] 0
x[8,2,2] 0
x[8,2,3] 0
x[8,2,4] 0
x[8,2,5] 0
x[8,3,1] 0
x[8,3,2] 0
x[8,3,3] 0
x[8,3,4] 0
x[8,3,5] 0
x[8,4,1] 0
x[8,4,2] 0
x[8,4,3] 0
x[8,4,4] 0
x[8,4,5] 0
x[8,5,1] 0
x[8,5,2] 0
x[8,5,3] 0
x[8,5,4] 0
x[8,5,5] 0
x[8,6,1] 0
x[8,6,2] 0
x[8,6,3] 0
x[8,6,4] 0
x[8,6,5] 0
x[8,7,1] 0
x[8,7,2] 0
x[8,7,3] 0
x[8,7,4] 0
x[8,7,5] 0
x[8,9,1] 0
x[8,9,2] 0
x[8,9,3] 0
x[8,9,4] 0
x[8,9,5] 0
x[8,10,1] 0
x[8,10,2] 0
x[8,10,3] 0
x[8,10,4] 0
x[8,10,5] 0
x[8,11,1] 0
x[8,11,2] 0
x[8,11,3] 0
x[8,11,4] 0
x[8,11,5] 0
x[8,12,1] 0
x[8,12,2] 0
x[8,12,3] 0
x[8,12,4] 0
x[8,12,5] 0
x[8,13,1] 0
x[8,13,2] 0
x[8,13,3] 0
x[8,13,4] 0
x[8,13,5] 0
x[8,14,1] 0
x[8,14,2] 0
x[8,14,3] 0
x[8,14,4] 0
x[8,14,5] 0
x[8,15,1] 0
x[8,15,2] 0
x[8,15,3] 0
x[8,15,4] 0
x[8,15,5] 0
x[8,16,1] 0
x[8,16,2] 0
x[8,16,3] 0
x[8,16,4] 0
x[8,16,5] 0
x[8,17,1] 0
x[8,17,2] 0
x[8,17,3] 0
x[8,17,4] 0
x[8,17,5] 0
x[8,18,1] 0
x[8,18,2] 0
x[8,18,3] 0
x[8,18,4] 0
x[8,18,5] 0
x[8,19,1] 1
x[8,19,2] 0
x[8,19,3] 0
x[8,19,4] 0
x[8,19,5] 0
x[8,20,1] 0
x[8,20,2] 0
x[8,20,3] 0
x[8,20,4] 0
x[8,20,5] 0
x[8,21,1] 0
x[8,21,2] 0
x[8,21,3] 0
x[8,21,4] 0
x[8,21,5] 0
x[9,1,1] 0
x[9,1,2] 0
x[9,1,3] 0
x[9,1,4] 0
x[9,1,5] 0
x[9,2,1] 0
x[9,2,2] 0
x[9,2,3] 0
x[9,2,4] 0
x[9,2,5] 0
x[9,3,1] 0
x[9,3,2] 0
x[9,3,3] 0
x[9,3,4] 0
x[9,3,5] 0
x[9,4,1] 0
x[9,4,2] 0
x[9,4,3] 0
x[9,4,4] 0
x[9,4,5] 0
x[9,5,1] 0
x[9,5,2] 0
x[9,5,3] 0
x[9,5,4] 0
x[9,5,5] 0
x[9,6,1] 0
x[9,6,2] 0
x[9,6,3] 0
x[9,6,4] 0
x[9,6,5] 0
x[9,7,1] 0
x[9,7,2] 0
x[9,7,3] 0
x[9,7,4] 0
x[9,7,5] 0
x[9,8,1] 0
x[9,8,2] 0
x[9,8,3] 0
x[9,8,4] 0
x[9,8,5] 0
x[9,10,1] 0
x[9,10,2] 0
x[9,10,3] 0
x[9,10,4] 0
x[9,10,5] 0
x[9,11,1] 0
x[9,11,2] 0
x[9,11,3] 0
x[9,11,4] 0
x[9,11,5] 0
x[9,12,1] 0
x[9,12,2] 0
x[9,12,3] 0
x[9,12,4] 0
x[9,12,5] 0
x[9,13,1] 0
x[9,13,2] 0
x[9,13,3] 0
x[9,13,4] 0
x[9,13,5] 0
x[9,14,1] 0
x[9,14,2] 0
x[9,14,3] 0
x[9,14,4] 0
x[9,14,5] 0
x[9,15,1] 0
x[9,15,2] 0
x[9,15,3] 0
x[9,15,4] 0
x[9,15,5] 0
x[9,16,1] 0
x[9,16,2] 0
x[9,16,3] 0
x[9,16,4] 0
x[9,16,5] 0
x[9,17,1] 0
x[9,17,2] 0
x[9,17,3] 0
x[9,17,4] 0
x[9,17,5] 0
x[9,18,1] 0
x[9,18,2] 0
x[9,18,3] 0
x[9,18,4] 0
x[9,18,5] 0
x[9,19,1] 0
x[9,19,2] 0
x[9,19,3] 0
x[9,19,4] 0
x[9,19,5] 0
x[9,20,1] 0
x[9,20,2] 0
x[9,20,3] 0
x[9,20,4] 0
x[9,20,5] 0
x[9,21,1] 0
x[9,21,2] 0
x[9,21,3] 0
x[9,21,4] 0
x[9,21,5] 1
x[10,1,1] 0
x[10,1,2] 0
x[10,1,3] 0
x[10,1,4] 0
x[10,1,5] 0
x[10,2,1] 0
x[10,2,2] 0
x[10,2,3] 0
x[10,2,4] 0
x[10,2,5] 0
x[10,3,1] 0
x[10,3,2] 0
x[10,3,3] 0
x[10,3,4] 0
x[10,3,5] 0
x[10,4,1] 0
x[10,4,2] 1
x[10,4,3] 0
x[10,4,4] 0
x[10,4,5] 0
x[10,5,1] 0
x[10,5,2] 0
x[10,5,3] 0
x[10,5,4] 0
x[10,5,5] 0
x[10,6,1] 0
x[10,6,2] 0
x[10,6,3] 0
x[10,6,4] 0
x[10,6,5] 0
x[10,7,1] 0
x[10,7,2] 0
x[10,7,3] 0
x[10,7,4] 0
x[10,7,5] 0
x[10,8,1] 0
x[10,8,2] 0
x[10,8,3] 0
x[10,8,4] 0
x[10,8,5] 0
x[10,9,1] 0
x[10,9,2] 0
x[10,9,3] 0
x[10,9,4] 0
x[10,9,5] 0
x[10,11,1] 0
x[10,11,2] 0
x[10,11,3] 0
x[10,11,4] 0
x[10,11,5] 0
x[10,12,1] 0
x[10,12,2] 0
x[10,12,3] 0
x[10,12,4] 0
x[10,12,5] 0
x[10,13,1] 0
x[10,13,2] 0
x[10,13,3] 0
x[10,13,4] 0
x[10,13,5] 0
x[10,14,1] 0
x[10,14,2] 0
x[10,14,3] 0
x[10,14,4] 0
x[10,14,5] 0
x[10,15,1] 0
x[10,15,2] 0
x[10,15,3] 0
x[10,15,4] 0
x[10,15,5] 0
x[10,16,1] 0
x[10,16,2] 0
x[10,16,3] 0
x[10,16,4] 0
x[10,16,5] 0
x[10,17,1] 0
x[10,17,2] 0
x[10,17,3] 0
x[10,17,4] 0
x[10,17,5] 0
x[10,18,1] 0
x[10,18,2] 0
x[10,18,3] 0
x[10,18,4] 0
x[10,18,5] 0
x[10,19,1] 0
x[10,19,2] 0
x[10,19,3] 0
x[10,19,4] 0
x[10,19,5] 0
x[10,20,1] 0
x[10,20,2] 0
x[10,20,3] 0
x[10,20,4] 0
x[10,20,5] 0
x[10,21,1] 0
x[10,21,2] 0
x[10,21,3] 0
x[10,21,4] 0
x[10,21,5] 0
x[11,1,1] 0
x[11,1,2] 0
x[11,1,3] 0
x[11,1,4] 0
x[11,1,5] 0
x[11,2,1] 0
x[11,2,2] 0
x[11,2,3] 0
x[11,2,4] 0
x[11,2,5] 0
x[11,3,1] 0
x[11,3,2] 0
x[11,3,3] 0
x[11,3,4] 0
x[11,3,5] 0
x[11,4,1] 0
x[11,4,2] 0
x[11,4,3] 0
x[11,4,4] 0
x[11,4,5] 0
x[11,5,1] 0
x[11,5,2] 0
x[11,5,3] 0
x[11,5,4] 0
x[11,5,5] 0
x[11,6,1] 0
x[11,6,2] 0
x[11,6,3] 0
x[11,6,4] 0
x[11,6,5] 0
x[11,7,1] 0
x[11,7,2] 0
x[11,7,3] 0
x[11,7,4] 0
x[11,7,5] 0
x[11,8,1] 0
x[11,8,2] 0
x[11,8,3] 0
x[11,8,4] 0
x[11,8,5] 0
x[11,9,1] 0
x[11,9,2] 0
x[11,9,3] 0
x[11,9,4] 0
x[11,9,5] 0
x[11,10,1] 0
x[11,10,2] 0
x[11,10,3] 0
x[11,10,4] 0
x[11,10,5] 0
x[11,12,1] 0
x[11,12,2] 0
x[11,12,3] 0
x[11,12,4] 0
x[11,12,5] 0
x[11,13,1] 0
x[11,13,2] 0
x[11,13,3] 0
x[11,13,4] 0
x[11,13,5] 0
x[11,14,1] 0
x[11,14,2] 0
x[11,14,3] 0
x[11,14,4] 0
x[11,14,5] 0
x[11,15,1] 0
x[11,15,2] 0
x[11,15,3] 0
x[11,15,4] 0
x[11,15,5] 0
x[11,16,1] 0
x[11,16,2] 0
x[11,16,3] 0
x[11,16,4] 0
x[11,16,5] 0
x[11,17,1] 0
x[11,17,2] 0
x[11,17,3] 0
x[11,17,4] 0
x[11,17,5] 0
x[11,18,1] 0
x[11,18,2] 0
x[11,18,3] 0
x[11,18,4] 0
x[11,18,5] 0
x[11,19,1] 0
x[11,19,2] 0
x[11,19,3] 0
x[11,19,4] 0
x[11,19,5] 0
x[11,20,1] 1
x[11,20,2] 0
x[11,20,3] 0
x[11,20,4] 0
x[11,20,5] 0
x[11,21,1] 0
x[11,21,2] 0
x[11,21,3] 0
x[11,21,4] 0
x[11,21,5] 0
x[12,1,1] 0
x[12,1,2] 0
x[12,1,3] 0
x[12,1,4] 0
x[12,1,5] 0
x[12,2,1] 0
x[12,2,2] 0
x[12,2,3] 0
x[12,2,4] 0
x[12,2,5] 0
x[12,3,1] 0
x[12,3,2] 0
x[12,3,3] 0
x[12,3,4] 0
x[12,3,5] 0
x[12,4,1] 0
x[12,4,2] 0
x[12,4,3] 0
x[12,4,4] 0
x[12,4,5] 0
x[12,5,1] 0
x[12,5,2] 0
x[12,5,3] 0
x[12,5,4] 0
x[12,5,5] 0
x[12,6,1] 0
x[12,6,2] 0
x[12,6,3] 0
x[12,6,4] 0
x[12,6,5] 0
x[12,7,1] 0
x[12,7,2] 0
x[12,7,3] 0
x[12,7,4] 0
x[12,7,5] 0
x[12,8,1] 0
x[12,8,2] 0
x[12,8,3] 0
x[12,8,4] 0
x[12,8,5] 0
x[12,9,1] 0
x[12,9,2] 0
x[12,9,3] 0
x[12,9,4] 0
x[12,9,5] 0
x[12,10,1] 0
x[12,10,2] 0
x[12,10,3] 0
x[12,10,4] 0
x[12,10,5] 0
x[12,11,1] 0
x[12,11,2] 0
x[12,11,3] 0
x[12,11,4] 0
x[12,11,5] 0
x[12,13,1] 0
x[12,13,2] 0
x[12,13,3] 0
x[12,13,4] 0
x[12,13,5] 0
x[12,14,1] 0
x[12,14,2] 0
x[12,14,3] 0
x[12,14,4] 0
x[12,14,5] 0
x[12,15,1] 0
x[12,15,2] 0
x[12,15,3] 0
x[12,15,4] 0
x[12,15,5] 9.9999959722823406e-01
x[12,16,1] 0
x[12,16,2] 0
x[12,16,3] 0
x[12,16,4] 0
x[12,16,5] 0
x[12,17,1] 0
x[12,17,2] 0
x[12,17,3] 0
x[12,17,4] 0
x[12,17,5] 0
x[12,18,1] 0
x[12,18,2] 0
x[12,18,3] 0
x[12,18,4] 0
x[12,18,5] 0
x[12,19,1] 0
x[12,19,2] 0
x[12,19,3] 0
x[12,19,4] 0
x[12,19,5] 0
x[12,20,1] 0
x[12,20,2] 0
x[12,20,3] 0
x[12,20,4] 0
x[12,20,5] 0
x[12,21,1] 0
x[12,21,2] 0
x[12,21,3] 0
x[12,21,4] 0
x[12,21,5] 0
x[13,1,1] 0
x[13,1,2] 1
x[13,1,3] 0
x[13,1,4] 0
x[13,1,5] 0
x[13,2,1] 0
x[13,2,2] 0
x[13,2,3] 0
x[13,2,4] 0
x[13,2,5] 0
x[13,3,1] 0
x[13,3,2] 0
x[13,3,3] 0
x[13,3,4] 0
x[13,3,5] 0
x[13,4,1] 0
x[13,4,2] 0
x[13,4,3] 0
x[13,4,4] 0
x[13,4,5] 0
x[13,5,1] 0
x[13,5,2] 0
x[13,5,3] 0
x[13,5,4] 0
x[13,5,5] 0
x[13,6,1] 0
x[13,6,2] 0
x[13,6,3] 0
x[13,6,4] 0
x[13,6,5] 0
x[13,7,1] 0
x[13,7,2] 0
x[13,7,3] 0
x[13,7,4] 0
x[13,7,5] 0
x[13,8,1] 0
x[13,8,2] 0
x[13,8,3] 0
x[13,8,4] 0
x[13,8,5] 0
x[13,9,1] 0
x[13,9,2] 0
x[13,9,3] 0
x[13,9,4] 0
x[13,9,5] 0
x[13,10,1] 0
x[13,10,2] 0
x[13,10,3] 0
x[13,10,4] 0
x[13,10,5] 0
x[13,11,1] 0
x[13,11,2] 0
x[13,11,3] 0
x[13,11,4] 0
x[13,11,5] 0
x[13,12,1] 0
x[13,12,2] 0
x[13,12,3] 0
x[13,12,4] 0
x[13,12,5] 0
x[13,14,1] 0
x[13,14,2] 0
x[13,14,3] 0
x[13,14,4] 0
x[13,14,5] 0
x[13,15,1] 0
x[13,15,2] 0
x[13,15,3] 0
x[13,15,4] 0
x[13,15,5] 0
x[13,16,1] 0
x[13,16,2] 0
x[13,16,3] 0
x[13,16,4] 0
x[13,16,5] 0
x[13,17,1] 0
x[13,17,2] 0
x[13,17,3] 0
x[13,17,4] 0
x[13,17,5] 0
x[13,18,1] 0
x[13,18,2] 0
x[13,18,3] 0
x[13,18,4] 0
x[13,18,5] 0
x[13,19,1] 0
x[13,19,2] 0
x[13,19,3] 0
x[13,19,4] 0
x[13,19,5] 0
x[13,20,1] 0
x[13,20,2] 0
x[13,20,3] 0
x[13,20,4] 0
x[13,20,5] 0
x[13,21,1] 0
x[13,21,2] 0
x[13,21,3] 0
x[13,21,4] 0
x[13,21,5] 0
x[14,1,1] 0
x[14,1,2] 0
x[14,1,3] 0
x[14,1,4] 0
x[14,1,5] 0
x[14,2,1] 0
x[14,2,2] 0
x[14,2,3] 0
x[14,2,4] 0
x[14,2,5] 0
x[14,3,1] 0
x[14,3,2] 0
x[14,3,3] 0
x[14,3,4] 0
x[14,3,5] 0
x[14,4,1] 0
x[14,4,2] 0
x[14,4,3] 0
x[14,4,4] 0
x[14,4,5] 0
x[14,5,1] 0
x[14,5,2] 0
x[14,5,3] 0
x[14,5,4] 0
x[14,5,5] 0
x[14,6,1] 0
x[14,6,2] 0
x[14,6,3] 0
x[14,6,4] 0
x[14,6,5] 0
x[14,7,1] 1
x[14,7,2] 0
x[14,7,3] 0
x[14,7,4] 0
x[14,7,5] 0
x[14,8,1] 0
x[14,8,2] 0
x[14,8,3] 0
x[14,8,4] 0
x[14,8,5] 0
x[14,9,1] 0
x[14,9,2] 0
x[14,9,3] 0
x[14,9,4] 0
x[14,9,5] 0
x[14,10,1] 0
x[14,10,2] 0
x[14,10,3] 0
x[14,10,4] 0
x[14,10,5] 0
x[14,11,1] 0
x[14,11,2] 0
x[14,11,3] 0
x[14,11,4] 0
x[14,11,5] 0
x[14,12,1] 0
x[14,12,2] 0
x[14,12,3] 0
x[14,12,4] 0
x[14,12,5] 0
x[14,13,1] 0
x[14,13,2] 0
x[14,13,3] 0
x[14,13,4] 0
x[14,13,5] 0
x[14,15,1] 0
x[14,15,2] 0
x[14,15,3] 0
x[14,15,4] 0
x[14,15,5] 0
x[14,16,1] 0
x[14,16,2] 0
x[14,16,3] 0
x[14,16,4] 0
x[14,16,5] 0
x[14,17,1] 0
x[14,17,2] 0
x[14,17,3] 0
x[14,17,4] 0
x[14,17,5] 0
x[14,18,1] 0
x[14,18,2] 0
x[14,18,3] 0
x[14,18,4] 0
x[14,18,5] 0
x[14,19,1] 0
x[14,19,2] 0
x[14,19,3] 0
x[14,19,4] 0
x[14,19,5] 0
x[14,20,1] 0
x[14,20,2] 0
x[14,20,3] 0
x[14,20,4] 0
x[14,20,5] 0
x[14,21,1] 0
x[14,21,2] 0
x[14,21,3] 0
x[14,21,4] 0
x[14,21,5] 0
x[15,1,1] 0
x[15,1,2] 0
x[15,1,3] 0
x[15,1,4] 0
x[15,1,5] 0
x[15,2,1] 0
x[15,2,2] 0
x[15,2,3] 0
x[15,2,4] 0
x[15,2,5] 0
x[15,3,1] 0
x[15,3,2] 0
x[15,3,3] 0
x[15,3,4] 0
x[15,3,5] 0
x[15,4,1] 0
x[15,4,2] 0
x[15,4,3] 0
x[15,4,4] 0
x[15,4,5] 0
x[15,5,1] 0
x[15,5,2] 0
x[15,5,3] 0
x[15,5,4] 0
x[15,5,5] 0
x[15,6,1] 0
x[15,6,2] 0
x[15,6,3] 0
x[15,6,4] 0
x[15,6,5] 0
x[15,7,1] 0
x[15,7,2] 0
x[15,7,3] 0
x[15,7,4] 0
x[15,7,5] 0
x[15,8,1] 0
x[15,8,2] 0
x[15,8,3] 0
x[15,8,4] 0
x[15,8,5] 0
x[15,9,1] 0
x[15,9,2] 0
x[15,9,3] 0
x[15,9,4] 0
x[15,9,5] 1
x[15,10,1] 0
x[15,10,2] 0
x[15,10,3] 0
x[15,10,4] 0
x[15,10,5] 0
x[15,11,1] 0
x[15,11,2] 0
x[15,11,3] 0
x[15,11,4] 0
x[15,11,5] 0
x[15,12,1] 0
x[15,12,2] 0
x[15,12,3] 0
x[15,12,4] 0
x[15,12,5] 0
x[15,13,1] 0
x[15,13,2] 0
x[15,13,3] 0
x[15,13,4] 0
x[15,13,5] 0
x[15,14,1] 0
x[15,14,2] 0
x[15,14,3] 0
x[15,14,4] 0
x[15,14,5] 0
x[15,16,1] 0
x[15,16,2] 0
x[15,16,3] 0
x[15,16,4] 0
x[15,16,5] 0
x[15,17,1] 0
x[15,17,2] 0
x[15,17,3] 0
x[15,17,4] 0
x[15,17,5] 0
x[15,18,1] 0
x[15,18,2] 0
x[15,18,3] 0
x[15,18,4] 0
x[15,18,5] 0
x[15,19,1] 0
x[15,19,2] 0
x[15,19,3] 0
x[15,19,4] 0
x[15,19,5] 0
x[15,20,1] 0
x[15,20,2] 0
x[15,20,3] 0
x[15,20,4] 0
x[15,20,5] 0
x[15,21,1] 0
x[15,21,2] 0
x[15,21,3] 0
x[15,21,4] 0
x[15,21,5] -8.0520727003409439e-07
x[16,1,1] 0
x[16,1,2] 0
x[16,1,3] 0
x[16,1,4] 0
x[16,1,5] 0
x[16,2,1] 0
x[16,2,2] 0
x[16,2,3] 0
x[16,2,4] 0
x[16,2,5] 0
x[16,3,1] 0
x[16,3,2] 0
x[16,3,3] 0
x[16,3,4] 0
x[16,3,5] 0
x[16,4,1] 0
x[16,4,2] 0
x[16,4,3] 0
x[16,4,4] 0
x[16,4,5] 0
x[16,5,1] 0
x[16,5,2] 0
x[16,5,3] 0
x[16,5,4] 0
x[16,5,5] 0
x[16,6,1] 0
x[16,6,2] 0
x[16,6,3] 0
x[16,6,4] 0
x[16,6,5] 0
x[16,7,1] 0
x[16,7,2] 0
x[16,7,3] 0
x[16,7,4] 0
x[16,7,5] 0
x[16,8,1] 0
x[16,8,2] 0
x[16,8,3] 0
x[16,8,4] 0
x[16,8,5] 0
x[16,9,1] 0
x[16,9,2] 0
x[16,9,3] 0
x[16,9,4] 0
x[16,9,5] 0
x[16,10,1] 0
x[16,10,2] 0
x[16,10,3] 0
x[16,10,4] 0
x[16,10,5] 0
x[16,11,1] 0
x[16,11,2] 0
x[16,11,3] 0
x[16,11,4] 0
x[16,11,5] 0
x[16,12,1] 0
x[16,12,2] 0
x[16,12,3] 0
x[16,12,4] 0
x[16,12,5] 0
x[16,13,1] 0
x[16,13,2] 0
x[16,13,3] 0
x[16,13,4] 0
x[16,13,5] 0
x[16,14,1] 0
x[16,14,2] 0
x[16,14,3] 0
x[16,14,4] 0
x[16,14,5] 0
x[16,15,1] 0
x[16,15,2] 0
x[16,15,3] 0
x[16,15,4] 0
x[16,15,5] 0
x[16,17,1] 0
x[16,17,2] 0
x[16,17,3] 0
x[16,17,4] 0
x[16,17,5] 0
x[16,18,1] 0
x[16,18,2] 0
x[16,18,3] 0
x[16,18,4] 0
x[16,18,5] 0
x[16,19,1] 0
x[16,19,2] 0
x[16,19,3] 0
x[16,19,4] 0
x[16,19,5] 0
x[16,20,1] 0
x[16,20,2] 0
x[16,20,3] 0
x[16,20,4] 0
x[16,20,5] 0
x[16,21,1] 1
x[16,21,2] 0
x[16,21,3] 0
x[16,21,4] 0
x[16,21,5] 0
x[17,1,1] 0
x[17,1,2] 0
x[17,1,3] 0
x[17,1,4] 0
x[17,1,5] 0
x[17,2,1] 0
x[17,2,2] 0
x[17,2,3] 0
x[17,2,4] 0
x[17,2,5] 0
x[17,3,1] 0
x[17,3,2] 0
x[17,3,3] 0
x[17,3,4] 0
x[17,3,5] 0
x[17,4,1] 0
x[17,4,2] 0
x[17,4,3] 0
x[17,4,4] 0
x[17,4,5] 0
x[17,5,1] 0
x[17,5,2] 0
x[17,5,3] 0
x[17,5,4] 0
x[17,5,5] 0
x[17,6,1] 0
x[17,6,2] 0
x[17,6,3] 0
x[17,6,4] 0
x[17,6,5] 0
x[17,7,1] 0
x[17,7,2] 0
x[17,7,3] 0
x[17,7,4] 0
x[17,7,5] 0
x[17,8,1] 0
x[17,8,2] 0
x[17,8,3] 0
x[17,8,4] 0
x[17,8,5] 0
x[17,9,1] 0
x[17,9,2] 0
x[17,9,3] 0
x[17,9,4] 0
x[17,9,5] 0
x[17,10,1] 0
x[17,10,2] 0
x[17,10,3] 0
x[17,10,4] 0
x[17,10,5] 0
x[17,11,1] 0
x[17,11,2] 0
x[17,11,3] 0
x[17,11,4] 0
x[17,11,5] 0
x[17,12,1] 0
x[17,12,2] 0
x[17,12,3] 0
x[17,12,4] 0
x[17,12,5] 0
x[17,13,1] 0
x[17,13,2] 0
x[17,13,3] 0
x[17,13,4] 0
x[17,13,5] 0
x[17,14,1] 0
x[17,14,2] 0
x[17,14,3] 0
x[17,14,4] 0
x[17,14,5] 0
x[17,15,1] 0
x[17,15,2] 0
x[17,15,3] 0
x[17,15,4] 0
x[17,15,5] 0
x[17,16,1] 0
x[17,16,2] 0
x[17,16,3] 0
x[17,16,4] 0
x[17,16,5] 0
x[17,18,1] 0
x[17,18,2] 0
x[17,18,3] 0
x[17,18,4] 0
x[17,18,5] 1
x[17,19,1] 0
x[17,19,2] 0
x[17,19,3] 0
x[17,19,4] 0
x[17,19,5] 0
x[17,20,1] 0
x[17,20,2] 0
x[17,20,3] 0
x[17,20,4] 0
x[17,20,5] 0
x[17,21,1] 0
x[17,21,2] 0
x[17,21,3] 0
x[17,21,4] 0
x[17,21,5] 0
x[18,1,1] 0
x[18,1,2] 0
x[18,1,3] 0
x[18,1,4] 0
x[18,1,5] 0
x[18,2,1] 0
x[18,2,2] 0
x[18,2,3] 0
x[18,2,4] 0
x[18,2,5] 0
x[18,3,1] 0
x[18,3,2] 0
x[18,3,3] 0
x[18,3,4] 0
x[18,3,5] 0
x[18,4,1] 0
x[18,4,2] 0
x[18,4,3] 0
x[18,4,4] 0
x[18,4,5] 0
x[18,5,1] 0
x[18,5,2] 0
x[18,5,3] 0
x[18,5,4] 0
x[18,5,5] 1
x[18,6,1] 0
x[18,6,2] 0
x[18,6,3] 0
x[18,6,4] 0
x[18,6,5] 0
x[18,7,1] 0
x[18,7,2] 0
x[18,7,3] 0
x[18,7,4] 0
x[18,7,5] 0
x[18,8,1] 0
x[18,8,2] 0
x[18,8,3] 0
x[18,8,4] 0
x[18,8,5] 0
x[18,9,1] 0
x[18,9,2] 0
x[18,9,3] 0
x[18,9,4] 0
x[18,9,5] 0
x[18,10,1] 0
x[18,10,2] 0
x[18,10,3] 0
x[18,10,4] 0
x[18,10,5] 0
x[18,11,1] 0
x[18,11,2] 0
x[18,11,3] 0
x[18,11,4] 0
x[18,11,5] 0
x[18,12,1] 0
x[18,12,2] 0
x[18,12,3] 0
x[18,12,4] 0
x[18,12,5] 0
x[18,13,1] 0
x[18,13,2] 0
x[18,13,3] 0
x[18,13,4] 0
x[18,13,5] 0
x[18,14,1] 0
x[18,14,2] 0
x[18,14,3] 0
x[18,14,4] 0
x[18,14,5] 0
x[18,15,1] 0
x[18,15,2] 0
x[18,15,3] 0
x[18,15,4] 0
x[18,15,5] 0
x[18,16,1] 0
x[18,16,2] 0
x[18,16,3] 0
x[18,16,4] 0
x[18,16,5] 0
x[18,17,1] 0
x[18,17,2] 0
x[18,17,3] 0
x[18,17,4] 0
x[18,17,5] 0
x[18,19,1] 0
x[18,19,2] 0
x[18,19,3] 0
x[18,19,4] 0
x[18,19,5] 0
x[18,20,1] 0
x[18,20,2] 0
x[18,20,3] 0
x[18,20,4] 0
x[18,20,5] 0
x[18,21,1] 0
x[18,21,2] 0
x[18,21,3] 0
x[18,21,4] 0
x[18,21,5] 0
x[19,1,1] 0
x[19,1,2] 0
x[19,1,3] 0
x[19,1,4] 0
x[19,1,5] 0
x[19,2,1] 1
x[19,2,2] 0
x[19,2,3] 0
x[19,2,4] 0
x[19,2,5] 0
x[19,3,1] 0
x[19,3,2] 0
x[19,3,3] 0
x[19,3,4] 0
x[19,3,5] 0
x[19,4,1] 0
x[19,4,2] 0
x[19,4,3] 0
x[19,4,4] 0
x[19,4,5] 0
x[19,5,1] 0
x[19,5,2] 0
x[19,5,3] 0
x[19,5,4] 0
x[19,5,5] 0
x[19,6,1] 0
x[19,6,2] 0
x[19,6,3] 0
x[19,6,4] 0
x[19,6,5] 0
x[19,7,1] 0
x[19,7,2] 0
x[19,7,3] 0
x[19,7,4] 0
x[19,7,5] 0
x[19,8,1] 0
x[19,8,2] 0
x[19,8,3] 0
x[19,8,4] 0
x[19,8,5] 0
x[19,9,1] 0
x[19,9,2] 0
x[19,9,3] 0
x[19,9,4] 0
x[19,9,5] 0
x[19,10,1] 0
x[19,10,2] 0
x[19,10,3] 0
x[19,10,4] 0
x[19,10,5] 0
x[19,11,1] 0
x[19,11,2] 0
x[19,11,3] 0
x[19,11,4] 0
x[19,11,5] 0
x[19,12,1] 0
x[19,12,2] 0
x[19,12,3] 0
x[19,12,4] 0
x[19,12,5] 0
x[19,13,1] 0
x[19,13,2] 0
x[19,13,3] 0
x[19,13,4] 0
x[19,13,5] 0
x[19,14,1] 0
x[19,14,2] 0
x[19,14,3] 0
x[19,14,4] 0
x[19,14,5] 0
x[19,15,1] 0
x[19,15,2] 0
x[19,15,3] 0
x[19,15,4] 0
x[19,15,5] 0
x[19,16,1] 0
x[19,16,2] 0
x[19,16,3] 0
x[19,16,4] 0
x[19,16,5] 0
x[19,17,1] 0
x[19,17,2] 0
x[19,17,3] 0
x[19,17,4] 0
x[19,17,5] 0
x[19,18,1] 0
x[19,18,2] 0
x[19,18,3] 0
x[19,18,4] 0
x[19,18,5] 0
x[19,20,1] 0
x[19,20,2] 0
x[19,20,3] 0
x[19,20,4] 0
x[19,20,5] 0
x[19,21,1] 0
x[19,21,2] 0
x[19,21,3] 0
x[19,21,4] 0
x[19,21,5] 0
x[20,1,1] 0
x[20,1,2] 0
x[20,1,3] 0
x[20,1,4] 0
x[20,1,5] 0
x[20,2,1] 0
x[20,2,2] 0
x[20,2,3] 0
x[20,2,4] 0
x[20,2,5] 0
x[20,3,1] 0
x[20,3,2] 0
x[20,3,3] 0
x[20,3,4] 0
x[20,3,5] 0
x[20,4,1] 0
x[20,4,2] 0
x[20,4,3] 0
x[20,4,4] 0
x[20,4,5] 0
x[20,5,1] 0
x[20,5,2] 0
x[20,5,3] 0
x[20,5,4] 0
x[20,5,5] 0
x[20,6,1] 0
x[20,6,2] 0
x[20,6,3] 0
x[20,6,4] 0
x[20,6,5] 0
x[20,7,1] 0
x[20,7,2] 0
x[20,7,3] 0
x[20,7,4] 0
x[20,7,5] 0
x[20,8,1] 0
x[20,8,2] 0
x[20,8,3] 0
x[20,8,4] 0
x[20,8,5] 0
x[20,9,1] 0
x[20,9,2] 0
x[20,9,3] 0
x[20,9,4] 0
x[20,9,5] 0
x[20,10,1] 0
x[20,10,2] 0
x[20,10,3] 0
x[20,10,4] 0
x[20,10,5] 0
x[20,11,1] 0
x[20,11,2] 0
x[20,11,3] 0
x[20,11,4] 0
x[20,11,5] 0
x[20,12,1] 0
x[20,12,2] 0
x[20,12,3] 0
x[20,12,4] 0
x[20,12,5] 0
x[20,13,1] 0
x[20,13,2] 0
x[20,13,3] 0
x[20,13,4] 0
x[20,13,5] 0
x[20,14,1] 1
x[20,14,2] 0
x[20,14,3] 0
x[20,14,4] 0
x[20,14,5] 0
x[20,15,1] 0
x[20,15,2] 0
x[20,15,3] 0
x[20,15,4] 0
x[20,15,5] 0
x[20,16,1] 0
x[20,16,2] 0
x[20,16,3] 0
x[20,16,4] 0
x[20,16,5] 0
x[20,17,1] 0
x[20,17,2] 0
x[20,17,3] 0
x[20,17,4] 0
x[20,17,5] 0
x[20,18,1] 0
x[20,18,2] 0
x[20,18,3] 0
x[20,18,4] 0
x[20,18,5] 0
x[20,19,1] 0
x[20,19,2] 0
x[20,19,3] 0
x[20,19,4] 0
x[20,19,5] 0
x[20,21,1] 0
x[20,21,2] 0
x[20,21,3] 0
x[20,21,4] 0
x[20,21,5] 0
t[1] 2.4614136089202873e+01
t[2] 13
t[3] 19
t[4] 14
t[5] 1.3752163300942982e+01
t[6] 33
t[7] 3.4391902605551252e+01
t[8] 0
t[9] 38
t[10] 5
t[11] 1.9602093831618330e+01
t[12] 2.5399420268296169e+01
t[13] 1.7023562809132443e+01
t[14] 26
t[15] 2.7229767515074968e+01
t[16] 36
t[17] 8.0000137243454041e+00
t[18] 1.0043031076613886e+01
t[19] 7.5203579845360746e+00
t[20] 2.4047080767664053e+01
